sing20131228.00
TTAA  78001 48698
99008 26040 03507 00084 25829 01504 92765 19805 02523
85493 17210 03518 70132 09424 30009 50586 05342 28513
40758 13761 29010 30970 29957 07011 25097 40359 13516
20245 53344 14526 15424 68738 11043
88999
77118 11069=
=
=
